% File represents an instance of a Composite Structure problem to be solved by a CP framework
% Created on 2025-03-26 10:41:19.193
T = 50;
n = 9;
m = 12;
edges = [(2, 1),
(5, 4),
(8, 7),
(3, 2),
(6, 5),
(9, 8),
(1, 4),
(4, 7),
(2, 5),
(5, 8),
(3, 6),
(6, 9)];
counts = [|12, 8, 12, 10,
|12, 12, 12, 10,
|12, 14, 12, 12,
|12, 8, 12, 8,
|12, 12, 12, 8,
|12, 12, 12, 10,
|12, 8, 12, 6,
|12, 10, 12, 6,
|12, 10, 12, 8|];
